(set-info :smt-lib-version 2.6)
(set-logic LIA)
(set-info
  :source |
 Generated by PSyCO 0.1
 More info in N. P. Lopes and J. Monteiro. Weakest Precondition Synthesis for
 Compiler Optimizations, VMCAI'14.
|)
(set-info :category "industrial")
(set-info :status sat)
(declare-fun R_E1_V4 () Bool)
(declare-fun W_S1_V4 () Bool)
(declare-fun R_E1_V5 () Bool)
(declare-fun W_S1_V5 () Bool)
(declare-fun W_S2_V5 () Bool)
(declare-fun W_S2_V2 () Bool)
(declare-fun W_S2_V3 () Bool)
(declare-fun W_S2_V1 () Bool)
(declare-fun R_S2_V4 () Bool)
(declare-fun R_S2_V5 () Bool)
(declare-fun R_S2_V2 () Bool)
(declare-fun R_S2_V3 () Bool)
(declare-fun R_S2_V1 () Bool)
(declare-fun R_S1_V4 () Bool)
(declare-fun R_S1_V5 () Bool)
(declare-fun R_S1_V2 () Bool)
(declare-fun R_S1_V3 () Bool)
(declare-fun R_S1_V1 () Bool)
(declare-fun R_E1_V2 () Bool)
(declare-fun DISJ_W_S2_R_E1 () Bool)
(declare-fun DISJ_W_S2_R_S2 () Bool)
(declare-fun DISJ_W_S2_R_S1 () Bool)
(declare-fun DISJ_W_S1_W_S2 () Bool)
(declare-fun R_E1_V3 () Bool)
(declare-fun DISJ_W_S1_R_S2 () Bool)
(declare-fun DISJ_W_S1_R_S1 () Bool)
(declare-fun W_S2_V4 () Bool)
(declare-fun W_S1_V3 () Bool)
(declare-fun W_S1_V2 () Bool)
(declare-fun W_S1_V1 () Bool)
(declare-fun R_E1_V1 () Bool)
(declare-fun DISJ_W_S1_R_E1 () Bool)
(assert
 (let (($x51 (and W_S1_V4 R_E1_V4)))
 (let (($x2894 (not $x51)))
 (let (($x49 (and W_S1_V5 R_E1_V5)))
 (let (($x2626 (not $x49)))
 (let
 (($x6721
   (forall
    ((V3_0 Int) (V2_0 Int) 
     (V5_0 Int) (V4_0 Int) 
     (MW_S1_V1 Bool) (MW_S1_V3 Bool) 
     (MW_S1_V2 Bool) (MW_S1_V5 Bool) 
     (MW_S1_V4 Bool) (MW_S2_V1 Bool) 
     (MW_S2_V3 Bool) (MW_S2_V2 Bool) 
     (MW_S2_V5 Bool) (MW_S2_V4 Bool) 
     (S1_V1_!6074 Int) (S1_V1_!6084 Int) 
     (S1_V1_!6095 Int) (S1_V1_!6100 Int) 
     (S2_V5_!6082 Int) (S2_V5_!6092 Int) 
     (S2_V5_!6109 Int) (S2_V5_!6114 Int) 
     (S1_V3_!6075 Int) (S1_V3_!6085 Int) 
     (S1_V3_!6096 Int) (S1_V3_!6101 Int) 
     (S1_V2_!6076 Int) (S1_V2_!6086 Int) 
     (S1_V2_!6097 Int) (S1_V2_!6102 Int) 
     (E1_!6073 Int) (E1_!6094 Int) 
     (E1_!6105 Int) (S2_V4_!6083 Int) 
     (S2_V4_!6093 Int) (S2_V4_!6110 Int) 
     (S2_V4_!6115 Int) (S1_V5_!6077 Int) 
     (S1_V5_!6087 Int) (S1_V5_!6098 Int) 
     (S1_V5_!6103 Int) (S2_V1_!6079 Int) 
     (S2_V1_!6089 Int) (S2_V1_!6106 Int) 
     (S2_V1_!6111 Int) (S1_V4_!6078 Int) 
     (S1_V4_!6088 Int) (S1_V4_!6099 Int) 
     (S1_V4_!6104 Int) (S2_V2_!6081 Int) 
     (S2_V2_!6091 Int) (S2_V2_!6108 Int) 
     (S2_V2_!6113 Int) (S2_V3_!6080 Int) 
     (S2_V3_!6090 Int) (S2_V3_!6107 Int) 
     (S2_V3_!6112 Int))
    (let ((?x3611 (ite MW_S1_V4 S1_V4_!6104 V4_0)))
    (let ((?x3710 (ite MW_S2_V4 S2_V4_!6115 ?x3611)))
    (let ((?x3445 (ite MW_S1_V4 S1_V4_!6078 V4_0)))
    (let ((?x2992 (ite MW_S2_V4 S2_V4_!6083 ?x3445)))
    (let ((?x3630 (ite MW_S1_V4 S1_V4_!6088 ?x2992)))
    (let ((?x2787 (ite MW_S2_V4 S2_V4_!6093 ?x3630)))
    (let (($x3661 (= ?x2787 ?x3710)))
    (let ((?x3703 (ite MW_S1_V5 S1_V5_!6103 V5_0)))
    (let ((?x4112 (ite MW_S2_V5 S2_V5_!6114 ?x3703)))
    (let ((?x3253 (ite MW_S1_V5 S1_V5_!6077 V5_0)))
    (let ((?x2971 (ite MW_S2_V5 S2_V5_!6082 ?x3253)))
    (let ((?x3663 (ite MW_S1_V5 S1_V5_!6087 ?x2971)))
    (let ((?x3170 (ite MW_S2_V5 S2_V5_!6092 ?x3663)))
    (let (($x3415 (= ?x3170 ?x4112)))
    (let ((?x3992 (ite MW_S1_V2 S1_V2_!6102 V2_0)))
    (let ((?x3223 (ite MW_S2_V2 S2_V2_!6113 ?x3992)))
    (let ((?x3569 (ite MW_S1_V2 S1_V2_!6076 V2_0)))
    (let ((?x4085 (ite MW_S2_V2 S2_V2_!6081 ?x3569)))
    (let ((?x3902 (ite MW_S1_V2 S1_V2_!6086 ?x4085)))
    (let ((?x4260 (ite MW_S2_V2 S2_V2_!6091 ?x3902)))
    (let (($x4301 (= ?x4260 ?x3223)))
    (let ((?x4246 (ite MW_S1_V3 S1_V3_!6101 V3_0)))
    (let ((?x3488 (ite MW_S2_V3 S2_V3_!6112 ?x4246)))
    (let ((?x4224 (ite MW_S1_V3 S1_V3_!6075 V3_0)))
    (let ((?x2662 (ite MW_S2_V3 S2_V3_!6080 ?x4224)))
    (let ((?x3676 (ite MW_S1_V3 S1_V3_!6085 ?x2662)))
    (let ((?x4299 (ite MW_S2_V3 S2_V3_!6090 ?x3676)))
    (let (($x4295 (= ?x4299 ?x3488)))
    (let ((?x4285 (ite MW_S2_V1 S2_V1_!6106 E1_!6105)))
    (let ((?x4286 (+ 1 ?x4285)))
    (let ((?x4252 (ite MW_S2_V1 S2_V1_!6111 ?x4286)))
    (let ((?x4318 (ite MW_S1_V1 S1_V1_!6074 E1_!6073)))
    (let ((?x4344 (ite MW_S2_V1 S2_V1_!6079 ?x4318)))
    (let ((?x4361 (+ 1 ?x4344)))
    (let ((?x4363 (ite MW_S1_V1 S1_V1_!6084 ?x4361)))
    (let ((?x4343 (ite MW_S2_V1 S2_V1_!6089 ?x4363)))
    (let (($x3605 (= ?x4343 ?x4252)))
    (let (($x3134 (and $x3605 $x4295 $x4301 $x3415 $x3661)))
    (let ((?x4205 (+ (- 1) ?x3223)))
    (let (($x4142 (>= ?x4252 ?x4205)))
    (let ((?x3972 (ite MW_S2_V2 S2_V2_!6108 ?x3992)))
    (let (($x4725 (<= ?x3972 ?x4286)))
    (let (($x7048 (not $x4725)))
    (let (($x7173 (<= ?x3992 E1_!6105)))
    (let (($x6207 (not $x7173)))
    (let ((?x6070 (+ (- 1) ?x3992)))
    (let ((?x6706 (ite MW_S1_V1 S1_V1_!6095 E1_!6094)))
    (let ((?x6393 (+ 1 ?x6706)))
    (let ((?x6402 (ite MW_S1_V1 S1_V1_!6100 ?x6393)))
    (let (($x6942 (>= ?x6402 ?x6070)))
    (let ((?x6615 (ite MW_S1_V2 S1_V2_!6097 V2_0)))
    (let (($x6692 (<= ?x6615 ?x6393)))
    (let (($x6659 (not $x6692)))
    (let (($x5025 (<= V2_0 E1_!6094)))
    (let (($x5045 (not $x5025)))
    (let ((?x2693 (+ (- 1) ?x4260)))
    (let (($x3103 (>= ?x4343 ?x2693)))
    (let (($x2637 (<= ?x4085 ?x4361)))
    (let (($x3367 (not $x2637)))
    (let (($x3056 (<= V2_0 E1_!6073)))
    (let (($x3583 (not $x3056)))
    (let
    (($x2771
      (and $x3583 $x3367 $x3103 $x5045 $x6659 $x6942 $x6207 $x7048 $x4142)))
    (let (($x3823 (not $x2771)))
    (let (($x2533 (not MW_S2_V5)))
    (let (($x3375 (or $x2533 W_S2_V5)))
    (let (($x2688 (not MW_S2_V2)))
    (let (($x2939 (or $x2688 W_S2_V2)))
    (let (($x3384 (not MW_S2_V3)))
    (let (($x2870 (or $x3384 W_S2_V3)))
    (let (($x4170 (not MW_S2_V1)))
    (let (($x3831 (or $x4170 W_S2_V1)))
    (let (($x3156 (not MW_S1_V4)))
    (let (($x2921 (or $x3156 W_S1_V4)))
    (let (($x2691 (not MW_S1_V5)))
    (let (($x2705 (or $x2691 W_S1_V5)))
    (let (($x2530 (not MW_S1_V2)))
    (let (($x4060 (not MW_S1_V1)))
    (let (($x2447 (= S2_V3_!6112 S2_V3_!6090)))
    (let ((?x2909 (ite MW_S2_V4 S2_V4_!6110 ?x3611)))
    (let (($x3204 (= ?x2909 ?x3630)))
    (let (($x223 (not R_S2_V4)))
    (let (($x2915 (or $x223 $x3204)))
    (let ((?x3584 (ite MW_S2_V5 S2_V5_!6109 ?x3703)))
    (let (($x3136 (= ?x3584 ?x3663)))
    (let (($x221 (not R_S2_V5)))
    (let (($x3309 (or $x221 $x3136)))
    (let (($x2632 (= ?x3972 ?x3902)))
    (let (($x219 (not R_S2_V2)))
    (let (($x2686 (or $x219 $x2632)))
    (let ((?x2838 (ite MW_S2_V3 S2_V3_!6107 ?x4246)))
    (let (($x3248 (= ?x2838 ?x3676)))
    (let (($x217 (not R_S2_V3)))
    (let (($x2656 (or $x217 $x3248)))
    (let ((?x2761 (+ (- 1) ?x4363)))
    (let (($x2602 (= ?x4285 ?x2761)))
    (let (($x215 (not R_S2_V1)))
    (let (($x2657 (or $x215 $x2602)))
    (let (($x3278 (and $x2657 $x2656 $x2686 $x3309 $x2915)))
    (let (($x2872 (not $x3278)))
    (let (($x2719 (or $x2872 $x2447)))
    (let (($x2861 (= S2_V3_!6112 S2_V3_!6080)))
    (let (($x2445 (= ?x2909 ?x3445)))
    (let (($x3186 (or $x223 $x2445)))
    (let (($x2624 (= ?x3584 ?x3253)))
    (let (($x2780 (or $x221 $x2624)))
    (let (($x3487 (= ?x3972 ?x3569)))
    (let (($x2769 (or $x219 $x3487)))
    (let (($x2485 (= ?x2838 ?x4224)))
    (let (($x2889 (or $x217 $x2485)))
    (let ((?x3694 (+ (- 1) ?x4318)))
    (let (($x3767 (= ?x4285 ?x3694)))
    (let (($x3874 (or $x215 $x3767)))
    (let (($x3491 (and $x3874 $x2889 $x2769 $x2780 $x3186)))
    (let (($x2964 (not $x3491)))
    (let (($x2482 (or $x2964 $x2861)))
    (let (($x3185 (= S2_V3_!6107 S2_V3_!6112)))
    (let (($x3456 (= ?x3611 ?x2909)))
    (let (($x2655 (or $x223 $x3456)))
    (let (($x3366 (= ?x3703 ?x3584)))
    (let (($x3159 (or $x221 $x3366)))
    (let (($x3100 (= ?x3992 ?x3972)))
    (let (($x2498 (or $x219 $x3100)))
    (let (($x3446 (= ?x4246 ?x2838)))
    (let (($x2532 (or $x217 $x3446)))
    (let (($x3768 (= E1_!6105 ?x4286)))
    (let (($x3662 (or $x215 $x3768)))
    (let (($x2830 (and $x3662 $x2532 $x2498 $x3159 $x2655)))
    (let (($x3599 (not $x2830)))
    (let (($x2524 (or $x3599 $x3185)))
    (let (($x3179 (= S2_V3_!6107 S2_V3_!6090)))
    (let (($x3322 (= ?x3611 ?x3630)))
    (let (($x3292 (or $x223 $x3322)))
    (let (($x2866 (= ?x3703 ?x3663)))
    (let (($x2508 (or $x221 $x2866)))
    (let (($x2560 (= ?x3992 ?x3902)))
    (let (($x2466 (or $x219 $x2560)))
    (let (($x2441 (= ?x4246 ?x3676)))
    (let (($x3112 (or $x217 $x2441)))
    (let (($x3300 (= E1_!6105 ?x4363)))
    (let (($x3481 (or $x215 $x3300)))
    (let (($x2710 (and $x3481 $x3112 $x2466 $x2508 $x3292)))
    (let (($x2822 (not $x2710)))
    (let (($x2613 (or $x2822 $x3179)))
    (let (($x2679 (= S2_V3_!6107 S2_V3_!6080)))
    (let (($x2469 (= ?x3611 ?x3445)))
    (let (($x3576 (or $x223 $x2469)))
    (let (($x2695 (= ?x3703 ?x3253)))
    (let (($x2837 (or $x221 $x2695)))
    (let (($x2840 (= ?x3992 ?x3569)))
    (let (($x2951 (or $x219 $x2840)))
    (let (($x2592 (= ?x4246 ?x4224)))
    (let (($x3146 (or $x217 $x2592)))
    (let (($x3616 (= E1_!6105 ?x4318)))
    (let (($x2944 (or $x215 $x3616)))
    (let (($x3029 (and $x2944 $x3146 $x2951 $x2837 $x3576)))
    (let (($x2844 (not $x3029)))
    (let (($x2703 (or $x2844 $x2679)))
    (let (($x4110 (= S2_V3_!6090 S2_V3_!6080)))
    (let (($x3534 (= ?x3630 ?x3445)))
    (let (($x3847 (or $x223 $x3534)))
    (let (($x3480 (= ?x3663 ?x3253)))
    (let (($x3526 (or $x221 $x3480)))
    (let (($x3298 (= ?x3902 ?x3569)))
    (let (($x2778 (or $x219 $x3298)))
    (let (($x2975 (= ?x3676 ?x4224)))
    (let (($x3074 (or $x217 $x2975)))
    (let (($x2839 (= ?x4363 ?x4318)))
    (let (($x2646 (or $x215 $x2839)))
    (let (($x2201 (and $x2646 $x3074 $x2778 $x3526 $x3847)))
    (let (($x2865 (not $x2201)))
    (let (($x2641 (or $x2865 $x4110)))
    (let (($x4130 (= S2_V2_!6113 S2_V2_!6108)))
    (let (($x2905 (= ?x2909 ?x3611)))
    (let (($x3214 (or $x223 $x2905)))
    (let (($x2546 (= ?x3584 ?x3703)))
    (let (($x3171 (or $x221 $x2546)))
    (let (($x3267 (= ?x3972 ?x3992)))
    (let (($x2594 (or $x219 $x3267)))
    (let (($x3205 (= ?x2838 ?x4246)))
    (let (($x2618 (or $x217 $x3205)))
    (let ((?x2616 (+ (- 1) E1_!6105)))
    (let (($x2619 (= ?x4285 ?x2616)))
    (let (($x2205 (or $x215 $x2619)))
    (let (($x2950 (and $x2205 $x2618 $x2594 $x3171 $x3214)))
    (let (($x2881 (not $x2950)))
    (let (($x2644 (or $x2881 $x4130)))
    (let (($x3388 (= S2_V2_!6113 S2_V2_!6091)))
    (let (($x2845 (or $x2872 $x3388)))
    (let (($x2491 (= S2_V2_!6091 S2_V2_!6108)))
    (let (($x2652 (= ?x3630 ?x3611)))
    (let (($x3013 (or $x223 $x2652)))
    (let (($x2767 (= ?x3663 ?x3703)))
    (let (($x2476 (or $x221 $x2767)))
    (let (($x2529 (= ?x3902 ?x3992)))
    (let (($x2968 (or $x219 $x2529)))
    (let (($x2541 (= ?x3676 ?x4246)))
    (let (($x3131 (or $x217 $x2541)))
    (let (($x3633 (= ?x4363 E1_!6105)))
    (let (($x2681 (or $x215 $x3633)))
    (let (($x3113 (and $x2681 $x3131 $x2968 $x2476 $x3013)))
    (let (($x2916 (not $x3113)))
    (let (($x3397 (or $x2916 $x2491)))
    (let (($x3228 (= S2_V2_!6081 S2_V2_!6113)))
    (let (($x2588 (= ?x3445 ?x2909)))
    (let (($x2454 (or $x223 $x2588)))
    (let (($x3059 (= ?x3253 ?x3584)))
    (let (($x2842 (or $x221 $x3059)))
    (let (($x2965 (= ?x3569 ?x3972)))
    (let (($x2430 (or $x219 $x2965)))
    (let (($x3457 (= ?x4224 ?x2838)))
    (let (($x2718 (or $x217 $x3457)))
    (let (($x3543 (= ?x4318 ?x4286)))
    (let (($x3115 (or $x215 $x3543)))
    (let (($x2724 (and $x3115 $x2718 $x2430 $x2842 $x2454)))
    (let (($x2699 (not $x2724)))
    (let (($x2721 (or $x2699 $x3228)))
    (let (($x2864 (= S2_V2_!6081 S2_V2_!6108)))
    (let (($x2434 (= ?x3445 ?x3611)))
    (let (($x2907 (or $x223 $x2434)))
    (let (($x2974 (= ?x3253 ?x3703)))
    (let (($x2696 (or $x221 $x2974)))
    (let (($x3260 (= ?x3569 ?x3992)))
    (let (($x3441 (or $x219 $x3260)))
    (let (($x2917 (= ?x4224 ?x4246)))
    (let (($x2603 (or $x217 $x2917)))
    (let (($x4091 (= ?x4318 E1_!6105)))
    (let (($x3743 (or $x215 $x4091)))
    (let (($x2728 (and $x3743 $x2603 $x3441 $x2696 $x2907)))
    (let (($x2684 (not $x2728)))
    (let (($x3048 (or $x2684 $x2864)))
    (let (($x3064 (= S2_V2_!6081 S2_V2_!6091)))
    (let (($x2935 (= ?x3445 ?x3630)))
    (let (($x2862 (or $x223 $x2935)))
    (let (($x4067 (= ?x3253 ?x3663)))
    (let (($x4068 (or $x221 $x4067)))
    (let (($x3332 (= ?x3569 ?x3902)))
    (let (($x4166 (or $x219 $x3332)))
    (let (($x2976 (= ?x4224 ?x3676)))
    (let (($x3549 (or $x217 $x2976)))
    (let (($x3424 (= ?x4318 ?x4363)))
    (let (($x2882 (or $x215 $x3424)))
    (let (($x3323 (and $x2882 $x3549 $x4166 $x4068 $x2862)))
    (let (($x2200 (not $x3323)))
    (let (($x3455 (or $x2200 $x3064)))
    (let (($x3800 (= S1_V4_!6104 S1_V4_!6088)))
    (let ((?x2668 (ite MW_S1_V4 S1_V4_!6099 V4_0)))
    (let (($x3977 (= ?x2668 ?x2992)))
    (let (($x210 (not R_S1_V4)))
    (let (($x3329 (or $x210 $x3977)))
    (let ((?x4106 (ite MW_S1_V5 S1_V5_!6098 V5_0)))
    (let (($x3299 (= ?x4106 ?x2971)))
    (let (($x208 (not R_S1_V5)))
    (let (($x3815 (or $x208 $x3299)))
    (let (($x3959 (= ?x6615 ?x4085)))
    (let (($x206 (not R_S1_V2)))
    (let (($x3238 (or $x206 $x3959)))
    (let ((?x2809 (ite MW_S1_V3 S1_V3_!6096 V3_0)))
    (let (($x3916 (= ?x2809 ?x2662)))
    (let (($x204 (not R_S1_V3)))
    (let (($x4039 (or $x204 $x3916)))
    (let (($x3372 (= ?x6706 ?x4344)))
    (let (($x202 (not R_S1_V1)))
    (let (($x2884 (or $x202 $x3372)))
    (let (($x2953 (and $x2884 $x4039 $x3238 $x3815 $x3329)))
    (let (($x3349 (not $x2953)))
    (let (($x3489 (or $x3349 $x3800)))
    (let (($x3400 (= S1_V4_!6104 S1_V4_!6078)))
    (let (($x2676 (= ?x2668 V4_0)))
    (let (($x3107 (or $x210 $x2676)))
    (let (($x3440 (= ?x4106 V5_0)))
    (let (($x2777 (or $x208 $x3440)))
    (let (($x2577 (= ?x6615 V2_0)))
    (let (($x2856 (or $x206 $x2577)))
    (let (($x3111 (= ?x2809 V3_0)))
    (let (($x3524 (or $x204 $x3111)))
    (let ((?x3042 (+ (- 1) E1_!6073)))
    (let (($x2888 (= ?x6706 ?x3042)))
    (let (($x2980 (or $x202 $x2888)))
    (let (($x3562 (and $x2980 $x3524 $x2856 $x2777 $x3107)))
    (let (($x3148 (not $x3562)))
    (let (($x4019 (or $x3148 $x3400)))
    (let (($x3124 (= S1_V4_!6099 S1_V4_!6104)))
    (let (($x4229 (= V4_0 ?x2668)))
    (let (($x3342 (or $x210 $x4229)))
    (let (($x2495 (= V5_0 ?x4106)))
    (let (($x4101 (or $x208 $x2495)))
    (let (($x3304 (= V2_0 ?x6615)))
    (let (($x3451 (or $x206 $x3304)))
    (let (($x2995 (= V3_0 ?x2809)))
    (let (($x2757 (or $x204 $x2995)))
    (let (($x2680 (= E1_!6094 ?x6393)))
    (let (($x2759 (or $x202 $x2680)))
    (let (($x2891 (and $x2759 $x2757 $x3451 $x4101 $x3342)))
    (let (($x2440 (not $x2891)))
    (let (($x2752 (or $x2440 $x3124)))
    (let (($x2651 (= S1_V4_!6099 S1_V4_!6088)))
    (let (($x2711 (= V4_0 ?x2992)))
    (let (($x3206 (or $x210 $x2711)))
    (let (($x2742 (= V5_0 ?x2971)))
    (let (($x4099 (or $x208 $x2742)))
    (let (($x4095 (= V2_0 ?x4085)))
    (let (($x3155 (or $x206 $x4095)))
    (let (($x3072 (= V3_0 ?x2662)))
    (let (($x2989 (or $x204 $x3072)))
    (let (($x2645 (= E1_!6094 ?x4361)))
    (let (($x2832 (or $x202 $x2645)))
    (let (($x3020 (and $x2832 $x2989 $x3155 $x4099 $x3206)))
    (let (($x3310 (not $x3020)))
    (let (($x3071 (or $x3310 $x2651)))
    (let (($x3075 (= S1_V4_!6099 S1_V4_!6078)))
    (let (($x2709 (= E1_!6094 E1_!6073)))
    (let (($x2545 (or $x202 $x2709)))
    (let (($x2987 (not $x2545)))
    (let (($x4115 (or $x2987 $x3075)))
    (let (($x4103 (= S1_V4_!6088 S1_V4_!6078)))
    (let (($x3889 (= ?x2992 V4_0)))
    (let (($x3346 (or $x210 $x3889)))
    (let (($x4003 (= ?x2971 V5_0)))
    (let (($x3898 (or $x208 $x4003)))
    (let (($x3896 (= ?x4085 V2_0)))
    (let (($x3757 (or $x206 $x3896)))
    (let (($x3758 (= ?x2662 V3_0)))
    (let (($x3885 (or $x204 $x3758)))
    (let (($x3634 (= ?x4344 ?x3042)))
    (let (($x3854 (or $x202 $x3634)))
    (let (($x3928 (and $x3854 $x3885 $x3757 $x3898 $x3346)))
    (let (($x3974 (not $x3928)))
    (let (($x2994 (or $x3974 $x4103)))
    (let (($x3592 (= S2_V1_!6111 S2_V1_!6106)))
    (let (($x3012 (or $x2881 $x3592)))
    (let (($x4305 (= S2_V1_!6089 S2_V1_!6111)))
    (let (($x2677 (= ?x3630 ?x2909)))
    (let (($x2650 (or $x223 $x2677)))
    (let (($x3582 (= ?x3663 ?x3584)))
    (let (($x2431 (or $x221 $x3582)))
    (let (($x3311 (= ?x3902 ?x3972)))
    (let (($x3026 (or $x219 $x3311)))
    (let (($x2745 (= ?x3676 ?x2838)))
    (let (($x2853 (or $x217 $x2745)))
    (let (($x2553 (= ?x4363 ?x4286)))
    (let (($x2880 (or $x215 $x2553)))
    (let (($x2697 (and $x2880 $x2853 $x3026 $x2431 $x2650)))
    (let (($x2713 (not $x2697)))
    (let (($x3239 (or $x2713 $x4305)))
    (let (($x3809 (= S2_V1_!6089 S2_V1_!6106)))
    (let (($x3591 (or $x2916 $x3809)))
    (let (($x4139 (= S2_V1_!6079 S2_V1_!6111)))
    (let (($x3038 (or $x2699 $x4139)))
    (let (($x4133 (= S2_V1_!6079 S2_V1_!6106)))
    (let (($x2486 (or $x2684 $x4133)))
    (let (($x3261 (= S2_V1_!6079 S2_V1_!6089)))
    (let (($x2470 (or $x2200 $x3261)))
    (let (($x2841 (= S1_V5_!6103 S1_V5_!6098)))
    (let ((?x3399 (+ (- 1) E1_!6094)))
    (let (($x2750 (= ?x6706 ?x3399)))
    (let (($x3307 (or $x202 $x2750)))
    (let (($x2969 (and $x3307 $x3524 $x2856 $x2777 $x3107)))
    (let (($x3551 (not $x2969)))
    (let (($x2760 (or $x3551 $x2841)))
    (let (($x2702 (= S1_V5_!6103 S1_V5_!6087)))
    (let (($x3369 (or $x3349 $x2702)))
    (let (($x3095 (= S1_V5_!6103 S1_V5_!6077)))
    (let (($x2558 (or $x3148 $x3095)))
    (let (($x3105 (= S1_V5_!6098 S1_V5_!6087)))
    (let (($x4077 (or $x3310 $x3105)))
    (let (($x3504 (= S1_V5_!6077 S1_V5_!6098)))
    (let (($x4117 (= E1_!6073 E1_!6094)))
    (let (($x3933 (or $x202 $x4117)))
    (let (($x4273 (not $x3933)))
    (let (($x3840 (or $x4273 $x3504)))
    (let (($x2507 (= S1_V5_!6077 S1_V5_!6087)))
    (let (($x3998 (= E1_!6073 ?x4361)))
    (let (($x3500 (or $x202 $x3998)))
    (let (($x3217 (and $x3500 $x2989 $x3155 $x4099 $x3206)))
    (let (($x3926 (not $x3217)))
    (let (($x2564 (or $x3926 $x2507)))
    (let (($x3884 (= S2_V4_!6115 S2_V4_!6110)))
    (let (($x3554 (or $x2881 $x3884)))
    (let (($x3969 (= S2_V4_!6115 S2_V4_!6093)))
    (let (($x2725 (or $x2872 $x3969)))
    (let (($x2460 (= S2_V4_!6115 S2_V4_!6083)))
    (let (($x2442 (or $x2964 $x2460)))
    (let (($x3888 (= S2_V4_!6110 S2_V4_!6093)))
    (let (($x2847 (or $x2822 $x3888)))
    (let (($x3069 (= S2_V4_!6083 S2_V4_!6110)))
    (let (($x2754 (or $x2684 $x3069)))
    (let (($x3178 (= S2_V4_!6083 S2_V4_!6093)))
    (let (($x2477 (or $x2200 $x3178)))
    (let (($x3548 (= E1_!6105 E1_!6094)))
    (let (($x2956 (= ?x3611 V4_0)))
    (let (($x158 (not R_E1_V4)))
    (let (($x2598 (or $x158 $x2956)))
    (let (($x2658 (= ?x3703 V5_0)))
    (let (($x156 (not R_E1_V5)))
    (let (($x2659 (or $x156 $x2658)))
    (let (($x2611 (= ?x3992 V2_0)))
    (let (($x154 (not R_E1_V2)))
    (let (($x2910 (or $x154 $x2611)))
    (let (($x4050 (and $x2910 $x2659 $x2598)))
    (let (($x4684 (not $x4050)))
    (let (($x4545 (or $x4684 $x3548)))
    (let (($x2432 (= E1_!6073 E1_!6105)))
    (let (($x3426 (= V4_0 ?x3611)))
    (let (($x2765 (or $x158 $x3426)))
    (let (($x2601 (= V5_0 ?x3703)))
    (let (($x2574 (or $x156 $x2601)))
    (let (($x3192 (= V2_0 ?x3992)))
    (let (($x2762 (or $x154 $x3192)))
    (let (($x2893 (and $x2762 $x2574 $x2765)))
    (let (($x2671 (not $x2893)))
    (let (($x6602 (or $x2671 $x2432)))
    (let (($x2955 (= S1_V2_!6097 S1_V2_!6102)))
    (let (($x2811 (or $x2440 $x2955)))
    (let (($x2453 (= S1_V2_!6097 S1_V2_!6076)))
    (let (($x2661 (or $x2987 $x2453)))
    (let (($x3025 (= S1_V2_!6086 S1_V2_!6102)))
    (let (($x3240 (= ?x2992 ?x2668)))
    (let (($x2682 (or $x210 $x3240)))
    (let (($x3459 (= ?x2971 ?x4106)))
    (let (($x2871 (or $x208 $x3459)))
    (let (($x2550 (= ?x4085 ?x6615)))
    (let (($x2690 (or $x206 $x2550)))
    (let (($x3422 (= ?x2662 ?x2809)))
    (let (($x2685 (or $x204 $x3422)))
    (let (($x3328 (= ?x4344 ?x6706)))
    (let (($x3382 (or $x202 $x3328)))
    (let (($x3553 (and $x3382 $x2685 $x2690 $x2871 $x2682)))
    (let (($x3213 (not $x3553)))
    (let (($x2484 (or $x3213 $x3025)))
    (let (($x3350 (= S1_V2_!6086 S1_V2_!6097)))
    (let (($x2945 (= ?x4344 ?x3399)))
    (let (($x2960 (or $x202 $x2945)))
    (let (($x2568 (and $x2960 $x3885 $x3757 $x3898 $x3346)))
    (let (($x2610 (not $x2568)))
    (let (($x2820 (or $x2610 $x3350)))
    (let (($x3165 (= S1_V2_!6086 S1_V2_!6076)))
    (let (($x3407 (or $x3974 $x3165)))
    (let (($x2607 (= S1_V2_!6076 S1_V2_!6102)))
    (let (($x3244 (= E1_!6073 ?x6393)))
    (let (($x3454 (or $x202 $x3244)))
    (let (($x3368 (and $x3454 $x2757 $x3451 $x4101 $x3342)))
    (let (($x2912 (not $x3368)))
    (let (($x2654 (or $x2912 $x2607)))
    (let (($x2492 (= S1_V3_!6101 S1_V3_!6096)))
    (let (($x3094 (or $x3551 $x2492)))
    (let (($x3126 (= S1_V3_!6101 S1_V3_!6075)))
    (let (($x3363 (or $x3148 $x3126)))
    (let (($x2203 (= S1_V3_!6085 S1_V3_!6101)))
    (let (($x2886 (or $x3213 $x2203)))
    (let (($x3497 (= S1_V3_!6085 S1_V3_!6096)))
    (let (($x2202 (or $x2610 $x3497)))
    (let (($x3086 (= S1_V3_!6085 S1_V3_!6075)))
    (let (($x3321 (or $x3974 $x3086)))
    (let (($x2548 (= S1_V3_!6075 S1_V3_!6096)))
    (let (($x2922 (or $x4273 $x2548)))
    (let (($x2590 (= S2_V5_!6114 S2_V5_!6109)))
    (let (($x3293 (or $x2881 $x2590)))
    (let (($x3608 (= S2_V5_!6092 S2_V5_!6114)))
    (let (($x2860 (or $x2713 $x3608)))
    (let (($x3235 (= S2_V5_!6092 S2_V5_!6109)))
    (let (($x2875 (or $x2916 $x3235)))
    (let (($x3444 (= S2_V5_!6092 S2_V5_!6082)))
    (let (($x2963 (or $x2865 $x3444)))
    (let (($x2747 (= S2_V5_!6082 S2_V5_!6114)))
    (let (($x2504 (or $x2699 $x2747)))
    (let (($x3330 (= S2_V5_!6082 S2_V5_!6109)))
    (let (($x3483 (or $x2684 $x3330)))
    (let (($x2712 (= S1_V1_!6095 S1_V1_!6100)))
    (let (($x2773 (or $x2440 $x2712)))
    (let (($x3294 (= S1_V1_!6095 S1_V1_!6074)))
    (let (($x2878 (or $x2987 $x3294)))
    (let (($x2977 (= S1_V1_!6084 S1_V1_!6100)))
    (let (($x2804 (or $x3213 $x2977)))
    (let (($x2701 (= S1_V1_!6084 S1_V1_!6095)))
    (let (($x3269 (or $x2610 $x2701)))
    (let (($x2902 (= S1_V1_!6084 S1_V1_!6074)))
    (let (($x2433 (or $x3974 $x2902)))
    (let (($x3270 (= S1_V1_!6074 S1_V1_!6100)))
    (let (($x2204 (or $x2912 $x3270)))
    (let
    (($x4376
      (and $x2204 $x2433 $x3269 $x2804 $x2878 $x2773 $x3483 $x2504 $x2963
      $x2875 $x2860 $x3293 $x2922 $x3321 $x2202 $x2886 $x3363 $x3094 $x2654
      $x3407 $x2820 $x2484 $x2661 $x2811 $x4117 $x6602 $x4545 $x2477 $x2754
      $x2847 $x2442 $x2725 $x3554 $x2564 $x3840 $x4077 $x2558 $x3369 $x2760
      $x2470 $x2486 $x3038 $x3591 $x3239 $x3012 $x2994 $x4115 $x3071 $x2752
      $x4019 $x3489 $x3455 $x3048 $x2721 $x3397 $x2845 $x2644 $x2641 $x2703
      $x2613 $x2524 $x2482 $x2719 $x4060 $x2530 $x2705 $x2921 $x3831 $x2870
      $x2939 $x3375)))
    (let (($x4081 (not $x4376))) (or $x4081 $x3823 $x3134)))))))))))))))))))))))))))))))))))))))))))))))))))))))))))))))))))))))))))))))))))))))))))))))))))))))))))))))))))))))))))))))))))))))))))))))))))))))))))))))))))))))))))))))))))))))))))))))))))))))))))))))))))))))))))))))))))))))))))))))))))))))))))))))))))))))))))))))))))))))))))))))))))))))))))))))))))))))))))))))))))))))))))))))))))))))))))))))))))))))))))))))))))))))))))))))))))))))))))))))))))))))))))))))))))))))))))))))))))))))))))))))))))))))))))))))))))))))))))))))))))))
 (let (($x90 (and W_S2_V5 R_E1_V5)))
 (let (($x89 (and W_S2_V2 R_E1_V2)))
 (let (($x6473 (or $x89 $x90 R_E1_V4)))
 (let (($x6571 (not $x6473)))
 (let (($x3829 (= DISJ_W_S2_R_E1 $x6571)))
 (let (($x81 (and W_S2_V5 R_S2_V5)))
 (let (($x80 (and W_S2_V2 R_S2_V2)))
 (let (($x79 (and W_S2_V3 R_S2_V3)))
 (let (($x78 (and W_S2_V1 R_S2_V1)))
 (let (($x113 (or $x78 $x79 $x80 $x81 R_S2_V4)))
 (let (($x114 (not $x113)))
 (let (($x115 (= DISJ_W_S2_R_S2 $x114)))
 (let (($x72 (and W_S2_V5 R_S1_V5)))
 (let (($x71 (and W_S2_V2 R_S1_V2)))
 (let (($x70 (and W_S2_V3 R_S1_V3)))
 (let (($x69 (and W_S2_V1 R_S1_V1)))
 (let (($x110 (or $x69 $x70 $x71 $x72 R_S1_V4)))
 (let (($x111 (not $x110)))
 (let (($x112 (= DISJ_W_S2_R_S1 $x111)))
 (let (($x63 (and W_S1_V5 W_S2_V5)))
 (let (($x2604 (or W_S2_V3 $x63 W_S1_V4)))
 (let (($x3581 (not $x2604)))
 (let (($x2462 (= DISJ_W_S1_W_S2 $x3581)))
 (let (($x152 (not R_E1_V3)))
 (let (($x37 (and W_S1_V4 R_S2_V4)))
 (let (($x35 (and W_S1_V5 R_S2_V5)))
 (let (($x2559 (or R_S2_V3 $x35 $x37)))
 (let (($x2885 (not $x2559)))
 (let (($x3580 (= DISJ_W_S1_R_S2 $x2885)))
 (let (($x23 (and W_S1_V4 R_S1_V4)))
 (let (($x20 (and W_S1_V5 R_S1_V5)))
 (let (($x2673 (or R_S1_V3 $x20 $x23)))
 (let (($x2970 (not $x2673)))
 (let (($x3312 (= DISJ_W_S1_R_S1 $x2970)))
 (let (($x2267 (not W_S2_V5)))
 (let (($x2259 (not W_S2_V2)))
 (let (($x217 (not R_S2_V3)))
 (let (($x215 (not R_S2_V1)))
 (let (($x6563 (and $x215 $x217 $x2259 $x2267 DISJ_W_S2_R_S1)))
 (let (($x2285 (not W_S2_V3)))
 (let (($x221 (not R_S2_V5)))
 (let (($x6956 (and $x215 $x221 $x2259 $x2285 DISJ_W_S2_R_S1)))
 (let (($x6490 (and $x215 $x2259 $x2267 $x2285 DISJ_W_S2_R_S1)))
 (let (($x6599 (and $x215 $x217 $x221 $x2259 DISJ_W_S2_R_S1)))
 (let (($x223 (not R_S2_V4)))
 (let (($x6339 (and $x215 $x223 $x2259 $x2267 DISJ_W_S2_R_S1)))
 (let (($x7182 (and $x215 $x221 $x223 $x2259 DISJ_W_S2_R_S1)))
 (let (($x6276 (and $x215 $x223 $x2259 $x2285 DISJ_W_S2_R_S1)))
 (let (($x6949 (and $x215 $x217 $x223 $x2259 DISJ_W_S2_R_S1)))
 (let (($x2216 (not W_S1_V4)))
 (let (($x6817 (and $x221 $x2216 $x2285 DISJ_W_S2_R_S1)))
 (let (($x6572 (and $x221 $x223 $x2285 DISJ_W_S2_R_S1)))
 (let (($x2213 (not W_S1_V5)))
 (let (($x6852 (and $x223 $x2213 $x2285 DISJ_W_S2_R_S1)))
 (let (($x6525 (and $x223 $x2267 $x2285 DISJ_W_S2_R_S1)))
 (let (($x7061 (and DISJ_W_S1_W_S2 DISJ_W_S2_R_S1)))
 (let (($x4694 (and $x217 $x2216 $x2267 DISJ_W_S2_R_S1)))
 (let (($x2253 (not W_S2_V1)))
 (let (($x3338 (and $x2253 $x2259)))
 (let (($x4352 (and $x217 $x223 $x2267 DISJ_W_S2_R_S1)))
 (let (($x4901 (and DISJ_W_S1_R_S2 DISJ_W_S2_R_S1)))
 (let (($x4375 (and $x2259 DISJ_W_S2_R_S2)))
 (let (($x3035 (and DISJ_W_S2_R_S1 DISJ_W_S2_R_S2)))
 (let
 (($x6609
   (or $x3035 $x4375 $x4901 $x4352 $x3338 $x4694 $x7061 $x6525 $x6852 $x6572
   $x6817 $x6949 $x6276 $x7182 $x6339 $x6599 $x6490 $x6956 $x6563)))
 (let (($x202 (not R_S1_V1)))
 (let (($x4092 (and $x202 DISJ_W_S1_R_S1)))
 (let (($x3173 (and $x2259 DISJ_W_S2_R_S1 DISJ_W_S1_R_S1)))
 (let (($x3621 (or $x3173 $x3338 $x4092)))
 (let (($x2209 (not W_S1_V2)))
 (let (($x2206 (not W_S1_V1)))
 (let (($x150 (not R_E1_V1)))
 (and DISJ_W_S1_R_E1 $x150 $x2206 $x2209 $x3621 $x6609 W_S1_V3 W_S2_V4 $x3312
 $x3580 $x152 $x2462 $x112 $x115 $x3829 $x6721 $x2626 $x2894))))))))))))))))))))))))))))))))))))))))))))))))))))))))))))))))))))))))))))))
(assert (let (($x3035 (and DISJ_W_S2_R_S1 DISJ_W_S2_R_S2))) (not $x3035)))
(check-sat)
(exit)

